2650 4910 2280 3000
2500 4060 3150 3800
3280 3775 3650 3900
2650 3415 3200 3860
2700 2825 3500 2650

3550 3190 3700 2130
3650 2710 4190 2750
1575 3900 2450 4090
1925 3375 2600 3540
2525 3500 2700 1925

425 3900 1700 3910
450 3790 700 3125
1000 2575 1000 1840
725 3090 1900 3425
350 2620 1350 2670

1025 2425 1010 1840
2500 1830 3150 1300
1700 1600 2375 2025
1550 1475 1650 1050
990 1850 1190 1140

1600 1475 1950 2400
1250 1250 1675 1530

1550 4260 575
2900 4060 720
1850 3630 420
1000 3400 500
2000 2525 530
3500 2380 575
1000 2000 700
1850 1310 775
2000 2890 1975

